Minimize
 obj: - 4 y(3) + 5 y(4) + 8 y(5) + 3 y(8) - 6 y(9) + 4 y(11) + y(13) - 4 y(15)
      - y(16) - 5 y(20) - y(21) - 5 y(24) - 3 y(25) + 6 y(28) + 2 y(34)
      - 5 y(35) + 6 y(37) + 70 x(0) - 2 y(0) + 3 y(10) - 5 y(12) + 2 y(17)
      + 9 y(19) + 7 y(23) - 8 y(26) - 3 y(27) - 2 y(29) + 5 y(30) + y(33)
      - y(36) + 8 y(38) - 146 x(1) - 8 y(6) + 9 y(18) - 76 x(2) - 10 y(1)
      + 4 y(2) + 2 y(14) + 2 y(22) - y(32) - 82 x(3) + 87 x(4) - 5 y(31)
      + 67 x(5) + 114 x(6) + 124 x(7) - 29 x(8) - 9 y(39) + 139 x(9)
      + 111 x(10) - 31 x(11) - 47 x(12) - 108 x(13) - 33 x(15) - 127 x(16)
      + 135 x(17) + 100 x(18) + 179 x(19) - 116 x(20) + 31 x(21) - 93 x(22)
      - 73 x(23) + 77 x(24) + 192 x(25) - 126 x(26) - 6 x(27) - 152 x(28)
      + 169 x(29) + 190 x(30) + 46 x(31) + 151 x(32) - 87 x(33) + 92 x(34)
      - 35 x(35) + 108 x(36) + 5 x(37) - 184 x(38) - 122 x(39) 
Subject To
 c1:  3 y(3) + 9 y(4) + 7 y(5) + 6 y(7) + 17 y(8) + 9 y(9) + 9 y(11) + 10 y(13)
      + 5 y(15) + 14 y(16) + 6 y(20) + 4 y(21) + 13 y(24) + 6 y(25) + 19 y(28)
      + 12 y(34) + 12 y(35) + 8 y(37) + 15 x(0) <= 96
 c2:  2 y(3) + 12 y(7) + 11 y(20) + 8 y(24) + 7 y(25) + 8 y(34) + 14 y(35)
      + 16 y(0) + y(10) + 5 y(12) + 8 y(17) + 18 y(19) + 17 y(23) + 3 y(26)
      + 13 y(27) + 10 y(29) + 7 y(30) + 2 y(33) - y(36) + 2 y(38) + 17 x(1)
      <= 72
 c3:  16 y(5) + 18 y(8) + 15 y(11) + 19 y(20) + 10 y(25) + 20 y(28) + 5 y(34)
      + 16 y(10) + 6 y(19) + 10 y(29) + 17 y(33) + 4 y(36) + 2 y(38) + 5 y(6)
      + 20 y(18) + 17 x(2) <= 74
 c4:  y(5) + y(7) + 12 y(8) + 4 y(11) + 18 y(13) + 20 y(15) + 16 y(16) - y(21)
      + 5 y(25) + 9 y(28) + 15 y(34) + 4 y(10) + 9 y(17) + 9 y(26) + y(29)
      + 5 y(6) + 14 y(18) + 16 y(1) + 7 y(2) + 16 y(14) + 11 y(22) + 20 y(32)
      + x(3) <= 76
 c5:  5 y(3) + 7 y(4) + 12 y(5) + 17 y(8) + 18 y(11) + 6 y(13) - y(15)
      + 9 y(16) + 17 y(20) + y(25) + 8 y(37) + 12 y(17) + 10 y(23) + 5 y(30)
      + 15 y(36) + 20 y(38) + 17 y(6) + 14 y(2) + 7 y(14) + 14 y(22) + 17 y(32)
      + 16 x(4) <= 81
 c6:  12 y(5) + 17 y(8) + 13 y(9) + 18 y(11) + 11 y(13) + 7 y(16) + 13 y(21)
      + 8 y(24) + 18 y(28) + 16 y(34) + 8 y(35) + 18 y(37) + 15 y(0) + 9 y(10)
      + 2 y(17) + 4 y(19) + 18 y(23) + 14 y(30) + 13 y(36) + 14 y(38) + 14 y(6)
      + 10 y(18) + 12 y(14) + 4 y(31) + x(5) <= 84
 c7:  10 y(8) + 2 y(9) + 17 y(11) + 4 y(13) + 2 y(15) + 6 y(16) + 20 y(21)
      + 14 y(24) + 11 y(17) + 18 y(19) + 9 y(26) + 4 y(27) + 16 y(29)
      + 15 y(33) - y(6) + 7 y(2) + y(22) + 9 y(31) + 5 x(6) <= 69
 c8:  19 y(9) + 4 y(11) + 4 y(21) + 17 y(28) + 20 y(35) + 13 y(37) + 8 y(0)
      + 15 y(12) + 11 y(17) + 13 y(23) + 15 y(26) - y(29) + y(30) + 17 y(33)
      + 14 y(38) + 14 y(18) + 12 y(2) + 4 y(32) + y(31) + 13 x(7) <= 91
 c9:  14 y(3) + 7 y(8) + 16 y(11) + 20 y(13) + 13 y(24) - y(25) + 16 y(28)
      + 2 y(0) + 12 y(17) + 6 y(23) + 6 y(27) + 4 y(29) + 10 y(36) + 13 y(38)
      + y(6) + 15 y(18) + 4 y(14) + 12 y(31) + x(8) <= 56
 c10: 5 y(3) + 11 y(7) + 10 y(8) + 8 y(9) + 11 y(11) + 6 y(13) + 5 y(15)
      + 6 y(16) + 14 y(20) + 9 y(21) - y(24) + y(28) - y(34) + 5 y(35)
      + 16 y(0) + 2 y(10) + 16 y(17) + 13 y(29) + 7 y(30) + 8 y(36) + 17 y(38)
      + 18 y(6) + 6 y(2) + 6 y(31) + 7 y(39) + 19 x(9) <= 86
 c11: 17 y(3) + y(13) + 13 y(15) + 10 y(16) + 17 y(20) + 10 y(25) + 15 y(34)
      + 14 y(37) - y(10) + 19 y(17) + 7 y(23) + 5 y(29) + 20 y(30) + 12 y(33)
      + 18 y(36) + 12 y(38) + 12 y(6) + 17 y(1) + 6 y(2) + 10 y(31) + 6 x(10)
      <= 73
 c12: 20 y(3) + 4 y(8) + 11 y(20) + 11 y(24) + 16 y(25) + 8 y(28) + 14 y(37)
      + 6 y(10) + 9 y(12) + 12 y(17) + 11 y(27) + 5 y(38) + 3 y(1) + y(39)
      + 11 x(11) <= 79
 c13: 17 y(4) + 20 y(7) + 8 y(8) + 10 y(9) + 2 y(11) + y(16) + 4 y(25) + y(28)
      + y(34) - y(0) + 6 y(10) + 4 y(17) + 4 y(27) + 20 y(36) + 18 y(38) + y(6)
      + 14 y(22) + 8 y(32) + 7 y(39) + 7 x(12) <= 62
 c14: 5 y(3) + 10 y(4) + 19 y(8) + 7 y(9) + 9 y(13) + 6 y(16) + 10 y(20)
      + 18 y(21) + 6 y(24) + 17 y(25) + 14 y(34) + 16 y(37) - y(12) + 14 y(23)
      + 4 y(27) + 17 y(29) - y(36) + 19 y(38) + 3 y(6) + 16 y(1) + 2 y(14)
      + 13 x(13) <= 96
 c15: 8 y(3) + 3 y(5) + 13 y(8) + 16 y(15) + 8 y(20) + 8 y(21) + 7 y(34)
      + 2 y(0) + 16 y(10) + 14 y(23) + 19 y(26) + 20 y(27) + 18 y(33) + 5 y(2)
      + 14 x(14) <= 53
 c16: 10 y(4) + 9 y(5) + 18 y(7) + 17 y(9) + 3 y(11) + 18 y(13) + y(15)
      + 5 y(20) + 13 y(24) + 9 y(37) + 5 y(0) + 7 y(17) + 10 y(19) + 6 y(23)
      + y(26) + 18 y(30) + 3 y(36) + y(38) + 14 y(6) + 6 y(1) + 13 y(22)
      + 4 y(32) + 14 y(31) + 8 x(15) <= 99
 c17: y(11) + 12 y(13) + 18 y(15) + 4 y(25) + 18 y(28) + 12 y(35) + 5 y(26)
      + 9 y(33) + 2 y(22) + 4 x(16) <= 58
 c18: 4 y(3) + 19 y(5) + 20 y(11) + 11 y(13) + 20 y(16) + 3 y(20) + 18 y(24)
      + 8 y(34) - y(37) + 8 y(0) + 4 y(10) + 12 y(26) + 15 y(27) + 4 y(18)
      + 14 y(2) + 18 y(31) + 9 x(17) <= 61
 c19: 16 y(4) + 19 y(5) + 9 y(9) - y(20) + 15 y(25) + 5 y(34) + 5 y(35)
      + 5 y(37) + 5 y(10) + 5 y(23) + 17 y(27) + 16 y(30) + 18 y(36) + 16 y(6)
      + 5 y(18) + 18 y(14) + 19 y(22) + 8 y(31) + x(18) <= 79
 c20: 11 y(3) - y(4) + 16 y(15) + 16 y(21) + 7 y(24) + 13 y(12) + 20 y(26)
      + 9 y(27) + 7 y(33) + 20 y(36) + 14 y(6) + 3 y(18) + 2 y(14) + 3 x(19)
      <= 74
 c21: 16 y(5) + 20 y(7) + 13 y(8) + 2 y(11) + 18 y(13) + 20 y(21) + 6 y(35)
      + 6 y(0) + 5 y(17) + 2 y(23) + 18 y(26) + 3 y(27) + 20 y(29) + 18 y(30)
      + 2 y(33) + 3 y(36) + 6 y(6) + 2 y(32) + 16 y(31) + 18 x(20) <= 79
 c22: 9 y(3) + 11 y(5) + 11 y(9) + 13 y(11) + 7 y(15) + 20 y(16) + 9 y(24)
      + 10 y(25) + y(28) + 17 y(34) + 13 y(10) + 4 y(12) + 3 y(17) + 16 y(33)
      + 4 y(36) + 11 y(6) + 9 y(18) + 13 y(1) + 14 y(14) + 4 y(31) + 3 x(21)
      <= 73
 c23: 16 y(3) + 2 y(4) + 16 y(5) + 8 y(11) + 9 y(13) + 11 y(15) + 20 y(16)
      + 9 y(20) + 2 y(24) + 17 y(28) + 13 y(34) + 18 y(37) + 2 y(19) + 16 y(26)
      - y(27) + 12 y(30) + 19 y(36) + 3 y(38) + 6 y(6) + 14 y(18) + 9 x(22)
      <= 91
 c24: 3 y(8) + 18 y(20) + 19 y(24) + 4 y(25) + 3 y(10) - y(12) + 4 y(19)
      + 16 y(23) + 7 y(29) + 20 y(30) + 18 y(33) + 19 y(38) + 18 y(18)
      + 9 y(32) + 15 x(23) <= 70
 c25: 4 y(4) + 14 y(7) + 7 y(8) + 9 y(9) + 2 y(13) - y(16) + 6 y(20) + 7 y(21)
      - y(25) + 10 y(28) + 6 y(34) + 3 y(35) + 4 y(37) + 14 y(0) + 20 y(12)
      + 7 y(19) + 5 y(23) + 16 y(26) + 7 y(27) + 3 y(33) + 12 y(36) + 19 y(18)
      + 19 y(1) + 19 y(14) + 20 y(22) + 8 y(31) + 5 x(24) <= 81
 c26: y(3) + 3 y(4) + 16 y(5) - y(7) + 11 y(8) + 17 y(9) + 7 y(21) + 6 y(24)
      + 5 y(25) + 9 y(34) + 20 y(35) + 17 y(37) + 16 y(12) + 18 y(19)
      + 18 y(26) + 4 y(27) + 5 y(30) + 16 y(33) + 18 y(18) + 6 y(1) + 9 y(2)
      + 8 y(14) + 16 y(22) + 20 y(31) + 11 y(39) + 5 x(25) <= 91
 c27: 9 y(3) + 7 y(5) + 8 y(11) + 20 y(13) + 15 y(15) + 9 y(20) + 6 y(21)
      + 15 y(24) + 3 y(28) + 11 y(34) + 3 y(35) + 15 y(23) + 7 y(30) + y(38)
      + 3 y(18) + 11 y(1) + 2 y(14) + 3 y(39) + 4 x(26) <= 99
 c28: - y(3) + y(4) + 6 y(5) + 14 y(8) + 14 y(11) + 5 y(16) + 18 y(20)
      + 13 y(21) + 18 y(25) + 20 y(34) + 10 y(35) + 5 y(37) + 3 y(17) + 2 y(30)
      + 5 y(33) + 14 y(32) + 12 y(39) + 7 x(27) <= 62
 c29: 20 y(5) + 8 y(9) + 20 y(11) + 7 y(21) + 14 y(25) + 11 y(34) + 4 y(35)
      - y(10) + 3 y(12) + 14 y(23) + 3 y(30) + y(36) + 11 y(38) + 6 y(1)
      + 11 y(2) + 5 y(14) + 5 y(22) + 9 y(32) + 6 y(39) + 14 x(28) <= 64
 c30: 12 y(5) + 14 y(7) + 14 y(15) - y(16) + 7 y(21) + 3 y(24) + 14 y(25)
      + 17 y(28) + 18 y(37) + 19 y(23) + 10 y(26) + 18 y(29) + 10 y(30)
      + 13 y(33) + 10 y(36) + 15 y(1) + 17 y(2) + 14 y(14) + 16 y(22) + y(32)
      + 13 y(31) + 19 x(29) <= 52
 c31: 6 y(3) + 7 y(5) + 17 y(13) + 20 y(15) + 8 y(21) + 17 y(25) + 17 y(10)
      + 5 y(23) + y(26) + 5 y(29) + 9 y(36) + 6 y(18) + 13 y(1) + 12 y(22)
      + x(30) <= 51
 c32: 8 y(8) + 8 y(9) + y(11) + 6 y(13) + 12 y(15) + 2 y(16) + 4 y(21)
      + 16 y(24) + 3 y(28) + 12 y(37) + 14 y(0) + 12 y(17) + 10 y(19)
      + 14 y(26) - y(27) + y(29) + 11 y(30) + 18 y(38) + 5 y(6) + 10 x(31)
      <= 84
 c33: 20 y(3) + 6 y(4) + 19 y(5) + 16 y(7) + 6 y(8) + 20 y(25) + 8 y(35)
      + 7 y(0) + 9 y(17) + 11 y(19) + 14 y(23) + 4 y(26) + 5 y(30) + 5 y(33)
      + 3 y(36) + 4 y(6) + 4 y(2) + 12 y(39) - x(32) <= 99
 c34: 14 y(3) + 14 y(5) + 11 y(7) + 20 y(11) + 13 y(13) + 17 y(16) + 15 y(20)
      + 2 y(21) - y(37) + 19 y(17) + 18 y(26) + 15 y(33) + y(36) + 16 y(38)
      + 14 y(6) + 18 y(18) + y(1) + 10 y(2) + 3 y(14) + 9 y(32) + 2 y(31)
      + 14 y(39) + 18 x(33) <= 50
 c35: 9 y(3) + 5 y(4) - y(9) - y(13) + 8 y(16) - y(20) + 16 y(21) + 13 y(24)
      + 13 y(25) + y(28) + 6 y(34) + 10 y(12) + 7 y(17) + 9 y(23) - y(30)
      + y(33) + 14 y(36) + 6 y(38) + 8 y(6) + 11 y(32) + 18 y(39) + 9 x(34)
      <= 60
 c36: - y(4) + 15 y(7) + 19 y(13) + 20 y(15) + 12 y(16) + 7 y(28) + 18 y(35)
      + 18 y(37) + 8 y(12) + 18 y(17) + 9 y(26) + 13 y(27) + 11 y(30)
      + 16 y(38) + 13 y(14) - y(22) + 3 y(32) + 5 y(31) + 14 y(39) + x(35)
      <= 80
 c37: 6 y(3) + 14 y(4) + 8 y(5) + y(7) + 4 y(8) + 19 y(13) + 11 y(15) + 2 y(21)
      + y(24) + 11 y(35) + 15 y(37) + 10 y(0) + 3 y(17) + 12 y(23) + 19 y(27)
      + 7 y(33) + 18 y(6) + 17 y(18) + 18 y(14) + 15 y(31) - x(36) <= 84
 c38: 17 y(4) + 2 y(5) + 6 y(21) + 4 y(25) + 5 y(37) + 8 y(0) - y(12) + 3 y(19)
      + 2 y(29) + 5 y(30) + 10 y(33) + 17 y(36) + 12 y(6) + 2 y(2) + 5 y(22)
      + 6 y(32) + 9 y(39) + 2 x(37) <= 53
 c39: 3 y(7) + 16 y(8) + 7 y(15) + 16 y(16) + 3 y(21) + 17 y(24) + 6 y(25)
      + 11 y(34) + 10 y(35) + 4 y(37) + 15 y(10) + 10 y(19) + 12 y(23)
      + 8 y(27) + 13 y(30) + 9 y(33) + 18 y(36) + 10 y(38) + 13 y(6) + 8 y(18)
      + y(2) - x(38) <= 95
 c40: 10 y(3) + 8 y(4) + 18 y(8) + 20 y(13) + 4 y(15) + 12 y(16) + 16 y(20)
      + 19 y(21) + 2 y(24) + 19 y(28) + 17 y(37) + 14 y(10) + 4 y(19) + y(26)
      - y(36) + 10 y(14) + 16 y(22) + 5 y(31) + 4 x(39) <= 65
 c41: - y(7) + 8 y(8) + 16 y(9) + 4 y(11) + 12 y(20) + 17 y(25) + 8 y(28)
      + 4 y(34) + 14 y(35) + 17 y(37) + y(0) + 12 y(23) + 17 y(26) + 4 y(30)
      + 7 y(33) + 2 y(38) + 14 y(1) + 6 y(2) + 11 y(22) + 17 y(32) + 20 y(31)
      + 18 y(39) <= 63
 c42: 3 y(3) + y(8) + 2 y(11) + 20 y(15) + 15 y(20) + 16 y(28) + 16 y(35)
      + 17 y(0) + 14 y(17) + 4 y(23) + 5 y(26) + y(27) + 5 y(38) + 8 y(6)
      + 14 y(14) + 16 y(32) <= 93
 c43: 2 y(3) + 17 y(4) + y(5) + 13 y(8) + 12 y(9) + 4 y(13) + 7 y(16) + 5 y(25)
      + 4 y(34) + 9 y(10) + 15 y(19) + 13 y(26) + 17 y(27) + 20 y(30)
      + 19 y(38) + 6 y(6) + 14 y(18) + 15 y(2) + 14 y(39) <= 94
 c44: 15 y(4) + 19 y(7) + 20 y(9) + 10 y(11) + 3 y(13) + 4 y(20) + 7 y(21)
      + 7 y(0) + 10 y(10) + 18 y(19) + 19 y(30) + 16 y(38) + y(1) + 6 y(14)
      + 5 y(22) + 5 y(31) <= 75
 c45: 5 y(3) + 16 y(5) + 9 y(7) + 18 y(9) + 11 y(15) + 16 y(20) + 4 y(34)
      + 5 y(12) + 14 y(17) + 12 y(19) + 17 y(23) + y(26) + 5 y(27) + 16 y(30)
      + 2 y(38) + 17 y(18) + 18 y(1) - y(2) + 10 y(14) + 9 y(32) <= 88
 c46: 9 y(4) + 2 y(7) + 14 y(11) + 11 y(15) + 12 y(16) + 6 y(21) + 10 y(24)
      + 5 y(28) + 13 y(34) + 7 y(0) + 7 y(10) + 15 y(19) + 5 y(27) + 13 y(29)
      + 16 y(36) + 19 y(22) + 18 y(32) + y(31) <= 97
 c47: 10 y(4) + 16 y(5) - y(9) + 16 y(11) + 9 y(15) + 10 y(24) + 3 y(25)
      + 15 y(37) + 12 y(10) + 7 y(17) + 9 y(19) + 19 y(27) + 12 y(29)
      + 12 y(33) + 2 y(38) + 13 y(2) + 14 y(14) + 15 y(32) - y(31) <= 98
 c48: 19 y(4) + 2 y(7) + 18 y(8) + 15 y(9) + 8 y(11) + y(16) + 10 y(21)
      + 4 y(24) + 8 y(25) + 3 y(35) + 8 y(37) + 8 y(12) + 11 y(19) + 18 y(23)
      + 6 y(26) + 6 y(27) + 18 y(29) + 10 y(33) + 13 y(38) + 9 y(18) + 3 y(14)
      + 14 y(22) + 8 y(32) + 2 y(31) + 7 y(39) <= 97
 c49: 18 y(3) + 6 y(4) - y(7) + 9 y(8) + 10 y(9) + 19 y(13) + 19 y(16)
      + 14 y(20) + 11 y(28) + 10 y(0) + 19 y(10) + 3 y(17) + 16 y(19) + 4 y(23)
      + 9 y(26) - y(27) + 18 y(30) + 3 y(33) + 18 y(36) + 13 y(22) + 10 y(31)
      + y(39) <= 82
 c50: y(4) + 17 y(5) + 8 y(9) + 15 y(11) + 15 y(15) + 10 y(24) + 11 y(28)
      + 17 y(34) + 17 y(35) + 15 y(12) + 5 y(17) + 6 y(23) + 12 y(29) + 8 y(6)
      + 4 y(18) + 18 y(1) + 19 y(2) + 8 y(32) + 7 y(39) <= 76
 c51: 9 y(11) + 15 y(24) + 13 y(34) + 16 y(37) + 18 y(0) + 5 y(12) + 2 y(19)
      + 6 y(23) + 2 y(27) + 10 y(38) + 15 y(18) + 5 y(32) <= 70
 c52: 6 y(3) + y(4) + 2 y(5) + 5 y(8) + 8 y(9) + 6 y(13) + 9 y(16) + 5 y(20)
      + 18 y(21) + y(0) + 9 y(12) + 3 y(17) + 4 y(19) + 15 y(29) + 7 y(30)
      + 20 y(2) + 7 y(22) + 8 y(39) <= 60
 c53: 8 y(3) + 3 y(8) + 5 y(11) + 9 y(13) + 11 y(16) + 10 y(24) + 3 y(34)
      - y(37) + 11 y(19) + 14 y(23) + 20 y(27) + 11 y(29) + 3 y(33) + 20 y(6)
      + 5 y(1) + 7 y(2) + 6 y(14) + 6 y(22) + 7 y(31) + 17 y(39) <= 74
 c54: 15 y(3) + 5 y(8) + 3 y(11) + 12 y(15) + 5 y(20) + 12 y(21) + 2 y(25)
      + 9 y(28) + 11 y(35) + 2 y(37) + 11 y(19) + 16 y(26) + y(29) + 5 y(38)
      + 4 y(6) + 12 y(18) + 6 y(14) + 7 y(39) <= 60
 c55: 11 y(4) + 17 y(5) + y(8) + 6 y(15) + 16 y(16) + 2 y(20) + 9 y(21)
      + 15 y(28) + 13 y(34) + 8 y(35) + 14 y(10) + 11 y(23) + 3 y(26) + 2 y(27)
      + 15 y(30) + 15 y(33) + 6 y(36) + 19 y(38) + 20 y(1) + 20 y(32) + 9 y(39)
      <= 54
 c56: 8 y(4) - y(8) + 3 y(11) + 15 y(13) + 9 y(15) + 9 y(16) + 14 y(20)
      + 10 y(21) + 16 y(24) + 4 y(25) + 19 y(28) + 14 y(35) + 7 y(37) + 9 y(0)
      + 2 y(10) + 13 y(17) + 4 y(19) + 20 y(23) + 10 y(29) + 14 y(33) + 7 y(36)
      + 10 y(6) + 13 y(18) + 19 y(22) - y(31) <= 54
 c57: 16 y(3) + y(4) + 9 y(11) + 3 y(13) + 18 y(16) + 20 y(24) + y(25)
      + 15 y(28) + 6 y(35) + 19 y(10) + 14 y(17) + 6 y(26) + 5 y(27) + 4 y(33)
      + 15 y(36) + 10 y(18) + 6 y(39) <= 75
 c58: 3 y(11) + 13 y(15) + 9 y(20) + 13 y(25) + 4 y(28) + 8 y(37) + 8 y(0)
      + 4 y(12) + 4 y(23) + 20 y(26) + 3 y(29) + 7 y(6) + 18 y(18) + 9 y(1)
      + 9 y(2) + 5 y(14) + 13 y(22) + 5 y(32) - y(31) + 5 y(39) <= 52
 c59: 15 y(13) + 20 y(21) + 8 y(35) + 17 y(37) + 20 y(0) + 2 y(10) - y(17)
      - y(19) + 2 y(26) + 5 y(27) + 7 y(29) + 8 y(30) + 6 y(33) + 3 y(18)
      + 3 y(2) - y(14) + 10 y(22) + 4 y(32) + 15 y(31) <= 91
 c60: 13 y(4) + 14 y(8) + 18 y(9) + 16 y(25) + 7 y(35) + y(0) + y(10)
      + 12 y(17) + 9 y(19) + 11 y(29) + 9 y(6) + 6 y(18) + 8 y(22) <= 63
 c61: 12 y(5) + y(7) + 16 y(9) + 6 y(11) + 12 y(21) + 7 y(28) + 17 y(37)
      + 10 y(0) + 9 y(12) + 9 y(29) + 19 y(38) + 17 y(18) + 5 y(2) + 13 y(14)
      + 13 y(22) + 15 y(31) <= 79
 c62: 4 y(3) + 16 y(4) + 14 y(8) + y(9) + 13 y(13) + 15 y(15) + 5 y(16)
      + 16 y(21) + 5 y(24) - y(37) + 9 y(10) + 18 y(12) + 7 y(17) + 17 y(19)
      + 6 y(27) + 7 y(29) + 5 y(36) + 3 y(38) - y(6) + 13 y(22) + 13 y(31)
      <= 67
 c63: 14 y(3) + 6 y(7) + 4 y(9) + 5 y(15) + 16 y(20) + 7 y(21) + 11 y(25)
      + 18 y(28) + 19 y(34) + 20 y(37) + 10 y(0) + 5 y(10) + 10 y(12)
      + 18 y(17) + 11 y(23) + 11 y(27) + 2 y(29) + 17 y(38) + 7 y(6) + 9 y(18)
      + 7 y(2) + 10 y(31) <= 72
 c64: 6 y(3) + 9 y(4) + 16 y(5) + 18 y(7) + 18 y(9) + 9 y(15) + 15 y(16)
      + 10 y(25) + 17 y(28) + 9 y(35) + 11 y(37) + 2 y(0) + 13 y(10) + 20 y(12)
      + 11 y(19) + 8 y(33) + 6 y(38) + 6 y(6) + 15 y(2) + 17 y(14) + 16 y(22)
      + 12 y(32) + 9 y(31) + 10 y(39) <= 78
 c65: 2 y(3) + 19 y(4) + 9 y(13) + 17 y(15) + 16 y(16) + 7 y(20) + y(24)
      + 7 y(25) + 20 y(28) + 12 y(34) + 8 y(35) + y(37) + 5 y(10) - y(12)
      + 9 y(17) + y(29) + 2 y(33) + 2 y(18) + 19 y(1) + 12 y(31) <= 67
 c66: 10 y(3) + 19 y(5) + 17 y(9) + 6 y(15) + 9 y(20) + 2 y(21) + 12 y(25)
      + 12 y(35) + 3 y(37) + 17 y(10) + 15 y(12) + 18 y(19) + 4 y(23)
      + 19 y(33) + 4 y(36) + 7 y(1) + y(22) + 20 y(32) + 4 y(39) <= 56
 c67: 18 y(4) + 19 y(8) + 18 y(16) + 14 y(24) + 10 y(28) + 13 y(34) + y(10)
      + 3 y(12) + 7 y(26) + 7 y(33) + 13 y(2) + 9 y(14) <= 82
 c68: 18 y(3) + 4 y(4) + 16 y(9) + 17 y(13) + 15 y(16) + y(20) + 10 y(35)
      + 3 y(37) + 15 y(10) + 10 y(30) + 16 y(18) + 19 y(2) + 10 y(14) + 8 y(32)
      + 8 y(31) <= 50
 c69: 20 y(9) + 16 y(11) + 3 y(15) + 14 y(16) + 9 y(20) + 18 y(21) - y(25)
      + 8 y(28) + y(37) + 19 y(10) + 9 y(12) + 9 y(26) + 14 y(27) + 11 y(29)
      + 15 y(33) + 12 y(36) + 16 y(18) + 2 y(31) <= 59
 c70: - y(5) + 2 y(9) + 18 y(11) + 5 y(16) + y(20) - y(24) + 18 y(25) - y(34)
      - y(35) + 17 y(26) + 15 y(27) + 13 y(29) + 7 y(30) + 20 y(33) + 3 y(36)
      + 10 y(38) + 9 y(6) + 19 y(18) + 14 y(32) + 11 y(31) <= 76
 c71: 7 y(4) + 3 y(5) - y(7) + 12 y(11) + 20 y(13) + 19 y(21) + 6 y(24)
      + 6 y(17) + y(26) + 17 y(33) + 9 y(36) + 5 y(2) + 5 y(22) <= 90
 c72: 11 y(3) + 19 y(11) + 7 y(15) + 3 y(20) + 17 y(21) + 18 y(24) + 12 y(28)
      + 8 y(37) + 5 y(0) - y(10) + 4 y(17) + 6 y(27) + 19 y(29) + 12 y(30)
      + 5 y(33) + 17 y(38) + 20 y(6) + 16 y(18) + 8 y(2) <= 73
 c73: 14 y(7) + 15 y(9) + 11 y(13) + 17 y(15) + 8 y(20) + 19 y(21) + 15 y(25)
      + 6 y(35) + 18 y(37) + 19 y(0) + 19 y(19) + 14 y(26) + 20 y(27) + 7 y(29)
      + 17 y(38) + 9 y(1) + 4 y(2) <= 93
 c74: 15 y(3) + 12 y(4) + 11 y(5) + y(9) + 17 y(15) + 14 y(20) - y(25)
      + 14 y(37) + 12 y(10) + 2 y(12) + y(19) + 3 y(26) + 18 y(29) + 3 y(36)
      + y(18) + 19 y(1) + 14 y(22) + 12 y(32) <= 83
 c75: 4 y(11) + 7 y(15) + 4 y(16) + 2 y(21) + y(34) + 20 y(17) + 9 y(19)
      + 2 y(27) + 7 y(14) + y(22) + 19 y(32) <= 72
 c76: 19 y(4) + 6 y(7) + 10 y(8) + 16 y(9) + 5 y(11) + 5 y(15) + 5 y(20)
      + 14 y(25) + y(37) + 11 y(12) + 12 y(19) + 6 y(26) + 20 y(38) + 12 y(2)
      + 10 y(14) + 10 y(32) + 9 y(31) <= 81
 c77: 17 y(3) + 12 y(4) + 11 y(7) + 11 y(9) + 8 y(16) + 13 y(20) + 4 y(25)
      + 14 y(34) + 6 y(37) - y(19) + 10 y(23) + 3 y(29) - y(30) + 11 y(36)
      + 7 y(38) + 20 y(6) <= 53
 c78: 18 y(8) + 15 y(11) + 14 y(13) + 6 y(16) + 15 y(21) + 13 y(24) + 17 y(25)
      + 17 y(0) + 13 y(10) + 5 y(17) + 11 y(19) + 11 y(23) + 2 y(27) + 16 y(36)
      + 13 y(38) + 2 y(6) + 12 y(18) + 8 y(2) + 19 y(14) + 15 y(31) + 16 y(39)
      <= 95
 c79: y(3) - y(4) + 2 y(5) + y(8) + 14 y(16) + y(21) + 5 y(24) + 19 y(35)
      + 12 y(37) + 5 y(0) + 11 y(10) + 15 y(12) + 16 y(17) + 10 y(19) + 7 y(26)
      + 13 y(27) + 6 y(6) + 2 y(31) + 17 y(39) <= 77
 c80: x(0) + x(1) + x(2) + x(3) + x(4) + x(5) + x(6) + x(7) + x(8) + x(9)
      + x(10) + x(11) + x(12) + x(13) + x(14) + x(15) + x(16) + x(17) + x(18)
      + x(19) + x(20) + x(21) + x(22) + x(23) + x(24) + x(25) + x(26) + x(27)
      + x(28) + x(29) + x(30) + x(31) + x(32) + x(33) + x(34) + x(35) + x(36)
      + x(37) + x(38) + x(39) <= 13
 c81: - 2 y(3) - 9 y(4) + y(7) - 6 y(8) + 3 y(9) - 7 y(13) - y(15) + 3 y(16)
      + 8 y(20) + 5 y(21) - 4 y(24) - 4 y(28) + 8 y(34) - 5 y(35) + 2 y(37)
      - 129 x(0) - 10 y(0) + 2 y(10) - 6 y(12) - y(17) + y(19) - y(23)
      + 5 y(26) + 7 y(27) + 3 y(29) - 10 y(30) + 9 y(33) + y(36) + 9 y(38)
      + 127 x(1) + 4 y(6) + 9 y(18) + 48 x(2) + y(1) + 8 y(2) - 4 y(14)
      + 7 y(22) - 7 y(32) + 25 x(3) + 147 x(4) - y(31) - 152 x(5) + 193 x(6)
      + 148 x(7) + 183 x(8) + 6 y(39) + 92 x(9) + 127 x(10) + 195 x(11)
      - 150 x(12) + 162 x(13) - 78 x(14) + 54 x(15) + 154 x(16) - 76 x(17)
      - 152 x(18) + 130 x(19) - 107 x(20) - 163 x(21) - 24 x(22) + 171 x(23)
      - 122 x(24) + 195 x(25) - 64 x(26) + 187 x(27) - 73 x(28) - 48 x(29)
      + 193 x(30) - x(31) - 194 x(32) + 40 x(33) - 176 x(34) + 154 x(35)
      + 16 x(36) + 145 x(37) + 102 x(38) - 74 x(39) = 0
Bounds
 0 <= x(0) <= 1
 0 <= x(1) <= 1
 0 <= x(2) <= 1
 0 <= x(3) <= 1
 0 <= x(4) <= 1
 0 <= x(5) <= 1
 0 <= x(6) <= 1
 0 <= x(7) <= 1
 0 <= x(8) <= 1
 0 <= x(9) <= 1
 0 <= x(10) <= 1
 0 <= x(11) <= 1
 0 <= x(12) <= 1
 0 <= x(13) <= 1
 0 <= x(14) <= 1
 0 <= x(15) <= 1
 0 <= x(16) <= 1
 0 <= x(17) <= 1
 0 <= x(18) <= 1
 0 <= x(19) <= 1
 0 <= x(20) <= 1
 0 <= x(21) <= 1
 0 <= x(22) <= 1
 0 <= x(23) <= 1
 0 <= x(24) <= 1
 0 <= x(25) <= 1
 0 <= x(26) <= 1
 0 <= x(27) <= 1
 0 <= x(28) <= 1
 0 <= x(29) <= 1
 0 <= x(30) <= 1
 0 <= x(31) <= 1
 0 <= x(32) <= 1
 0 <= x(33) <= 1
 0 <= x(34) <= 1
 0 <= x(35) <= 1
 0 <= x(36) <= 1
 0 <= x(37) <= 1
 0 <= x(38) <= 1
 0 <= x(39) <= 1
Binaries
 x(0)  x(1)  x(2)  x(3)  x(4)  x(5)  x(6)  x(7)  x(8)  x(9)  x(10)  x(11) 
 x(12)  x(13)  x(14)  x(15)  x(16)  x(17)  x(18)  x(19)  x(20)  x(21)  x(22) 
 x(23)  x(24)  x(25)  x(26)  x(27)  x(28)  x(29)  x(30)  x(31)  x(32)  x(33) 
 x(34)  x(35)  x(36)  x(37)  x(38)  x(39) 
End
